Copyright (C) 2013-2015, Filipe Brandao
Build (method = -2)
  #dp: 321
  Step-3' Graph: 30 vertices and 157 arcs (0.00s)
  Step-4' Graph: 19 vertices and 135 arcs (0.00s)
  #V4/#V3 = 0.63
  #A4/#A3 = 0.86
Ready! (0.00s)
Optimize a model with 56 rows, 136 columns and 374 nonzeros
Found heuristic solution: objective 45
Presolve removed 31 rows and 41 columns
Presolve time: 0.00s
Presolved: 25 rows, 95 columns, 226 nonzeros
Variable types: 0 continuous, 95 integer (67 binary)
Optimize a model with 25 rows, 95 columns and 226 nonzeros
Presolved: 25 rows, 95 columns, 226 nonzeros

Root barrier log...

Ordering time: 0.00s

Barrier statistics:
 AA' NZ     : 1.060e+02
 Factor NZ  : 2.730e+02
 Factor Ops : 3.757e+03 (less than 1 second per iteration)
 Threads    : 1

                  Objective                Residual
Iter       Primal          Dual         Primal    Dual     Compl     Time
   0   8.70574899e+01 -8.76476514e+01  3.17e+01 3.73e-01  2.27e+00     0s
   1   4.72898665e+01 -4.64149471e+00  1.87e+00 2.78e-16  3.32e-01     0s
   2   3.79950187e+01  2.92805831e+01  5.09e-02 2.22e-16  4.64e-02     0s
   3   3.53458414e+01  3.39457891e+01  1.41e-03 2.22e-16  7.36e-03     0s
   4   3.50298235e+01  3.49085149e+01  1.42e-04 1.66e-16  6.34e-04     0s
   5   3.50002400e+01  3.49996310e+01  4.78e-07 2.22e-16  3.18e-06     0s
   6   3.50000000e+01  3.50000000e+01  5.42e-13 1.83e-16  3.65e-12     0s

Barrier solved model in 6 iterations and 0.00 seconds
Optimal objective 3.50000000e+01


Root relaxation: objective 3.500000e+01, 49 iterations, 0.00 seconds

    Nodes    |    Current Node    |     Objective Bounds      |     Work
 Expl Unexpl |  Obj  Depth IntInf | Incumbent    BestBd   Gap | It/Node Time

*    0     0               0      35.0000000   35.00000  0.00%     -    0s

Explored 0 nodes (49 simplex iterations) in 0.00 seconds
Thread count was 1 (of 4 available processors)

Optimal solution found (tolerance 0.00e+00)
Best objective 3.500000000000e+01, best bound 3.500000000000e+01, gap 0.0%
Preprocessing time: 0.00 seconds
Gurobi run time: 0.00 seconds
Total run time: 0.00 seconds
Objective: 35
Solution:
2 x [i=1]
1 x [i=2]
1 x [i=3]
1 x [i=4]
1 x [i=5]
2 x [i=6]
2 x [i=7]
1 x [i=8]
3 x [i=9]
1 x [i=10]
1 x [i=11, i=37]
3 x [i=12]
1 x [i=13]
1 x [i=14, i=36]
2 x [i=15]
1 x [i=16, i=35]
1 x [i=17, i=34]
1 x [i=18, i=34]
2 x [i=19, i=31]
1 x [i=20, i=28]
1 x [i=21, i=29]
1 x [i=22, i=25]
1 x [i=23, i=31]
1 x [i=24, i=26]
1 x [i=27, i=30]
1 x [i=32, i=33, i=34]
